read_data ${fname}
read_data PE_cl100.txt
  orthogonal box = (0 0 0) to (158.5 158.5 100)
  1 by 1 by 1 MPI processor grid
  reading atoms ...
  100 atoms
  scanning bonds ...
  1 = max bonds/atom
  scanning angles ...
  1 = max angles/atom
  scanning dihedrals ...
  1 = max dihedrals/atom
  reading bonds ...
  99 bonds
  reading angles ...
  98 angles
  reading dihedrals ...
  97 dihedrals
  2 = max # of 1-2 neighbors
  2 = max # of 1-3 neighbors
  4 = max # of 1-4 neighbors
  6 = max # of special neighbors

# Dreiding potential information
neighbor  0.4 bin
neigh_modify  every 10 one 10000
bond_style      harmonic
bond_coeff  1 350 1.53
angle_style     harmonic
angle_coeff 1 60 109.5
dihedral_style  multi/harmonic
dihedral_coeff  1 1.73 -4.49 0.776 6.99 0.0
pair_style  lj/cut 10.5
pair_coeff  1 1 0.112 4.01 10.5

compute csym all centro/atom fcc
compute peratom all pe/atom



#####################################################
# Equilibration (Langevin dynamics at 5000 K)

velocity  all create 5000.0 1231
fix   1 all nve/limit 0.05
fix   2 all langevin 5000.0 5000.0 10.0 904297
thermo_style  custom step temp
thermo          10000
timestep  1
run   1000000
Last active /omp style is dihedral_style multi/harmonic/omp
Neighbor list info ...
  update every 10 steps, delay 10 steps, check yes
  max neighbors/atom: 10000, page size: 100000
  master list distance cutoff = 10.9
  ghost atom cutoff = 10.9
  binsize = 5.45, bins = 30 30 19
  2 neighbor lists, perpetual/occasional/extra = 1 1 0
  (1) pair lj/cut/omp, perpetual
      attributes: half, newton on, omp
      pair build: half/bin/newton/omp
      stencil: half/bin/3d/newton
      bin: standard
  (2) compute centro/atom, occasional
      attributes: full, newton on, omp
      pair build: full/bin/omp
      stencil: full/bin/3d
      bin: standard
Per MPI rank memory allocation (min/avg/max) = 19.82 | 19.82 | 19.82 Mbytes
Step Temp 
       0         5000 
   10000    3934.1613 
   20000     5035.255 
   30000    4649.9896 
   40000    5098.4844 
   50000     4826.255 
   60000    5051.5437 
   70000    5172.0781 
   80000    4459.0141 
   90000    4356.7981 
  100000    4950.6647 
  110000    4945.4379 
  120000      5033.59 
  130000    4280.7754 
  140000    3933.9028 
  150000    4053.5256 
  160000    4508.0435 
  170000    4055.9171 
  180000     4984.825 
  190000    4242.2204 
  200000    4485.8695 
  210000    4989.3952 
  220000    4374.4192 
  230000    4485.1081 
  240000    5305.0591 
  250000    4379.9124 
  260000    4304.6529 
  270000     4719.009 
  280000    4467.0005 
  290000    4714.0727 
  300000    5167.3738 
  310000    4266.7823 
  320000    4457.6141 
  330000    4075.6895 
  340000    4869.8828 
  350000    4855.5498 
  360000    4588.8693 
  370000    4377.6727 
  380000    4164.9691 
  390000    4550.4942 
  400000    4757.3212 
  410000     4681.901 
  420000    4349.1386 
  430000    4453.0311 
  440000    4925.9753 
  450000     5042.999 
  460000    5031.4167 
  470000    5013.4188 
  480000    5100.2411 
  490000    5240.9489 
  500000    5162.4933 
  510000     4627.528 
  520000    4748.9011 
  530000    3966.3239 
  540000    5163.8072 
  550000    5239.0815 
  560000     4328.693 
  570000     4827.383 
  580000    4302.9091 
  590000    4524.6835 
  600000    4795.4903 
  610000    5040.5419 
  620000    4297.4731 
  630000    4538.7411 
  640000    4582.4527 
  650000    4392.2502 
  660000    5270.3311 
  670000    4995.3256 
  680000    4566.2635 
  690000    4527.1452 
  700000    4587.7642 
  710000     5156.086 
  720000    4112.9005 
  730000    5026.2819 
  740000    4901.4171 
  750000    4585.6735 
  760000    4347.0714 
  770000    4789.5738 
  780000     4936.504 
  790000    4973.9661 
  800000    5628.7492 
  810000    4896.3862 
  820000    4700.7141 
  830000    4981.1406 
  840000    5007.9142 
  850000    4542.4695 
  860000    4899.5019 
  870000    4646.6302 
  880000    4326.9876 
  890000    4452.1174 
  900000     5101.468 
  910000    4802.9721 
  920000      4590.75 
  930000    4534.6512 
  940000     5198.565 
  950000    4729.6156 
  960000    4550.3488 
  970000    4708.4018 
  980000    4752.0502 
  990000    4245.3774 
 1000000    3844.0487 
Loop time of 316.385 on 8 procs for 1000000 steps with 100 atoms

Performance: 273.085 ns/day, 0.088 hours/ns, 3160.711 timesteps/s
122.4% CPU use with 1 MPI tasks x 8 OpenMP threads

MPI task timing breakdown:
Section |  min time  |  avg time  |  max time  |%varavg| %total
---------------------------------------------------------------
Pair    | 50.99      | 50.99      | 50.99      |   0.0 | 16.12
Bond    | 195.26     | 195.26     | 195.26     |   0.0 | 61.72
Neigh   | 7.4897     | 7.4897     | 7.4897     |   0.0 |  2.37
Comm    | 0.32724    | 0.32724    | 0.32724    |   0.0 |  0.10
Output  | 0.062485   | 0.062485   | 0.062485   |   0.0 |  0.02
Modify  | 57.456     | 57.456     | 57.456     |   0.0 | 18.16
Other   |            | 4.8        |            |       |  1.52

Nlocal:    100 ave 100 max 100 min
Histogram: 1 0 0 0 0 0 0 0 0 0
Nghost:    0 ave 0 max 0 min
Histogram: 1 0 0 0 0 0 0 0 0 0
Neighs:    1040 ave 1040 max 1040 min
Histogram: 1 0 0 0 0 0 0 0 0 0
FullNghs:  0 ave 0 max 0 min
Histogram: 1 0 0 0 0 0 0 0 0 0

Total # of neighbors = 1040
Ave neighs/atom = 10.4
Ave special neighs/atom = 5.88
Neighbor list builds = 100000
Dangerous builds = 100000
unfix 1
unfix 2
write_restart   restart.${simname}.dreiding1
write_restart   restart.PE_cl100.dreiding1
Last active /omp style is dihedral_style multi/harmonic/omp


#####################################################
# Define Settings
compute eng all pe/atom
compute eatoms all reduce sum c_eng

#####################################################
# Minimization

dump    1 all cfg 6 dump.comp_*.cfg mass type xs ys zs c_csym c_peratom fx fy fz
dump    3 all movie 6 movie3d.mpg type type     zoom 1.6 adiam 1.5
dump_modify 3 pad 5

reset_timestep 0
fix 1 all nvt temp 500.0 500.0 100.0
thermo 20
thermo_style custom step pe lx ly lz press pxx pyy pzz c_eatoms
min_style cg
minimize 1e-25 1e-25 500000 1000000
WARNING: Using 'neigh_modify every 1 delay 0 check yes' setting during minimization (../min.cpp:168)
Last active /omp style is dihedral_style multi/harmonic/omp
Per MPI rank memory allocation (min/avg/max) = 22.71 | 22.71 | 22.71 Mbytes
Step PotEng Lx Ly Lz Press Pxx Pyy Pzz c_eatoms 
       0    1050.8075        158.5        158.5          100    1.7162977     9.779558    9.3394005   -13.970065    1050.8075 
      20    101.36294        158.5        158.5          100    19.097858    19.725502    19.309672      18.2584    101.36294 
      40    61.920829        158.5        158.5          100    20.627374     20.90825     21.88628    19.087593    61.920829 
      60    50.516764        158.5        158.5          100    20.867448    21.370439    22.331614    18.900291    50.516764 
      80    40.611726        158.5        158.5          100    21.434631     22.02824    22.434979    19.840673    40.611726 
     100    33.910809        158.5        158.5          100    20.530557    21.196244    21.418274    18.977152    33.910809 
     120     29.59007        158.5        158.5          100    20.158104    20.758729    21.124075    18.591509     29.59007 
     140    26.049024        158.5        158.5          100    20.757659    21.297019    21.876525    19.099432    26.049024 
     160    23.584985        158.5        158.5          100    20.499241    20.832469     21.68295    18.982303    23.584985 
     180    21.635189        158.5        158.5          100    20.631779    21.273792    21.749309    18.872236    21.635189 
     200    18.318518        158.5        158.5          100    20.660386     20.92964    21.821133    19.230384    18.318518 
     220    15.470777        158.5        158.5          100    20.462418     20.86002    21.475895    19.051338    15.470777 
     240    12.936404        158.5        158.5          100    20.527247     21.13327    21.322428    19.126042    12.936404 
     260    11.415216        158.5        158.5          100    20.793066    21.409071     21.83051    19.139616    11.415216 
     280    10.144463        158.5        158.5          100    20.555743    21.107674    21.353892    19.205664    10.144463 
     300    9.3525474        158.5        158.5          100    20.507085    21.273122    21.150818    19.097316    9.3525474 
     320    9.0344571        158.5        158.5          100    20.650307    21.277824    21.434209    19.238889    9.0344571 
     340    8.2940586        158.5        158.5          100    20.583225     21.30234    21.273131    19.174202    8.2940586 
     360    7.3530101        158.5        158.5          100    20.725083    21.286723    21.608158    19.280369    7.3530101 
     380    6.5691631        158.5        158.5          100    20.450332    20.947407    21.331261    19.072328    6.5691631 
     400    5.7778629        158.5        158.5          100    20.479579    21.074005    21.451078    18.913653    5.7778629 
     420    5.2629194        158.5        158.5          100    20.502776    21.144635    21.294828    19.068866    5.2629194 
     440    4.6452818        158.5        158.5          100    20.276498    20.910447    21.206167     18.71288    4.6452818 
     460    4.1261066        158.5        158.5          100    20.511957    21.075281    21.473844    18.986746    4.1261066 
     480    3.6222512        158.5        158.5          100    20.455166    21.102687    21.441302     18.82151    3.6222512 
     500    2.9516205        158.5        158.5          100    20.351419    21.022256    21.307582    18.724418    2.9516205 
     520     2.299215        158.5        158.5          100    20.501621    21.159971    21.438953     18.90594     2.299215 
     540    1.6736311        158.5        158.5          100    20.552294    21.149366    21.522741    18.984774    1.6736311 
     560    1.2582107        158.5        158.5          100    20.383401    21.023307    21.326271    18.800624    1.2582107 
     580   0.69626941        158.5        158.5          100    20.362392     20.83837    21.337538    18.911267   0.69626941 
     600   0.18778632        158.5        158.5          100    20.534132    21.101393    21.444526    19.056476   0.18778632 
     620  0.094936022        158.5        158.5          100    20.576483    21.137408    21.485304    19.106736  0.094936022 
     640 -0.013911542        158.5        158.5          100    20.587924    21.230952    21.432877    19.099942 -0.013911542 
     660  -0.33323295        158.5        158.5          100    20.725398    21.263034    21.570275    19.342883  -0.33323295 
     680   -0.6681149        158.5        158.5          100    20.442863    21.061843    21.388951    18.877796   -0.6681149 
     700  -0.94905867        158.5        158.5          100    20.454414    20.995531    21.421254    18.946458  -0.94905867 
     720   -1.1559348        158.5        158.5          100    20.415347    21.018395    21.354068    18.873579   -1.1559348 
     740    -1.341678        158.5        158.5          100    20.434829    21.010469    21.348044    18.945974    -1.341678 
     760    -1.591155        158.5        158.5          100    20.489123    21.024491    21.378224    19.064652    -1.591155 
     780   -1.9067215        158.5        158.5          100    20.393588    20.996129    21.324951    18.859683   -1.9067215 
     800   -2.1898498        158.5        158.5          100    20.436803    21.114049    21.312805    18.883554   -2.1898498 
     820   -2.4831795        158.5        158.5          100      20.4611    21.191311    21.303306    18.888684   -2.4831795 
     840   -2.7034754        158.5        158.5          100    20.553409    21.209735    21.403746    19.046746   -2.7034754 
     860   -2.8792257        158.5        158.5          100     20.62466    21.286771    21.432788    19.154422   -2.8792257 
     880   -3.0316236        158.5        158.5          100     20.53793    21.148326    21.344139    19.121324   -3.0316236 
     900   -3.1691886        158.5        158.5          100    20.583359    21.228637    21.393816    19.127623   -3.1691886 
     920   -3.2771655        158.5        158.5          100    20.607204    21.254887    21.444857    19.121868   -3.2771655 
     940   -3.3537213        158.5        158.5          100    20.556573    21.261938    21.377612    19.030168   -3.3537213 
     960   -3.4149108        158.5        158.5          100     20.59719    21.249215    21.490661    19.051693   -3.4149108 
     980   -3.5117452        158.5        158.5          100    20.457324    21.192018    21.334717    18.845238   -3.5117452 
    1000   -3.6359682        158.5        158.5          100     20.50943    21.295228    21.341365    18.891697   -3.6359682 
    1020    -3.774656        158.5        158.5          100    20.517327    21.214654      21.3548    18.982526    -3.774656 
    1040   -3.8709895        158.5        158.5          100    20.550554     21.17866    21.466407    19.006594   -3.8709895 
    1060   -3.9948026        158.5        158.5          100    20.530158    21.150311    21.437487    19.002674   -3.9948026 
    1080   -4.0789739        158.5        158.5          100     20.52554    21.125567    21.461908    18.989146   -4.0789739 
    1100   -4.1798078        158.5        158.5          100    20.539288    21.139375    21.409174    19.069313   -4.1798078 
    1120    -4.268579        158.5        158.5          100    20.600875    21.159634    21.530836    19.112154    -4.268579 
    1140    -4.390077        158.5        158.5          100    20.578735    21.163589    21.422473    19.150142    -4.390077 
    1160   -4.6401886        158.5        158.5          100    20.525192    21.078031    21.332647    19.164898   -4.6401886 
    1180   -5.1783423        158.5        158.5          100    20.329796    20.956436    21.062517    18.970434   -5.1783423 
    1200   -5.9294728        158.5        158.5          100    20.589323    21.087484    21.471374    19.209112   -5.9294728 
    1220   -6.0968945        158.5        158.5          100    20.606227    21.108206    21.426608    19.283868   -6.0968945 
    1240   -6.3129879        158.5        158.5          100    20.679051    21.296949    21.522653     19.21755   -6.3129879 
    1260   -6.4126826        158.5        158.5          100    20.631709    21.180244    21.564565     19.15032   -6.4126826 
    1280   -6.5249285        158.5        158.5          100    20.629358    21.250478    21.537231    19.100366   -6.5249285 
    1300    -6.621966        158.5        158.5          100    20.593273    21.189791    21.472241    19.117786    -6.621966 
    1320      -6.6874        158.5        158.5          100    20.596051    21.210718     21.48388    19.093555      -6.6874 
    1340   -6.7294925        158.5        158.5          100    20.597154    21.222617    21.525907    19.042937   -6.7294925 
    1360   -6.7554386        158.5        158.5          100    20.604304    21.226032    21.528123    19.058756   -6.7554386 
    1380   -6.7936165        158.5        158.5          100    20.630465    21.254332    21.530583    19.106481   -6.7936165 
    1400   -6.8311844        158.5        158.5          100    20.604991    21.257217    21.497867    19.059888   -6.8311844 
    1420   -6.8805706        158.5        158.5          100    20.638814    21.253861    21.518785    19.143796   -6.8805706 
    1440    -6.918828        158.5        158.5          100    20.626975    21.279538    21.479149    19.122237    -6.918828 
    1460   -6.9553283        158.5        158.5          100    20.632314    21.239844    21.524019     19.13308   -6.9553283 
    1480    -6.999959        158.5        158.5          100    20.588789    21.211168    21.449668     19.10553    -6.999959 
    1500    -7.057569        158.5        158.5          100    20.604297    21.204811    21.491863    19.116217    -7.057569 
    1517   -7.0678518        158.5        158.5          100    20.590469    21.210466    21.463284    19.097657   -7.0678518 
Loop time of 4.62526 on 8 procs for 1517 steps with 100 atoms

66.6% CPU use with 1 MPI tasks x 8 OpenMP threads

Minimization stats:
  Stopping criterion = linesearch alpha is zero
  Energy initial, next-to-last, final = 
         1050.80748606     -7.06785179969     -7.06785179969
  Force two-norm initial, final = 1244.2 0.955361
  Force max component initial, final = 266.131 0.170777
  Final line search alpha, max atom move = 1.11605e-08 1.90595e-09
  Iterations, force evaluations = 1517 3128

MPI task timing breakdown:
Section |  min time  |  avg time  |  max time  |%varavg| %total
---------------------------------------------------------------
Pair    | 0.60924    | 0.60924    | 0.60924    |   0.0 | 13.17
Bond    | 1.3604     | 1.3604     | 1.3604     |   0.0 | 29.41
Neigh   | 0          | 0          | 0          |   0.0 |  0.00
Comm    | 0          | 0          | 0          |   0.0 |  0.00
Output  | 2.3901     | 2.3901     | 2.3901     |   0.0 | 51.67
Modify  | 0.20307    | 0.20307    | 0.20307    |   0.0 |  4.39
Other   |            | 0.06249    |            |       |  1.35

Nlocal:    100 ave 100 max 100 min
Histogram: 1 0 0 0 0 0 0 0 0 0
Nghost:    0 ave 0 max 0 min
Histogram: 1 0 0 0 0 0 0 0 0 0
Neighs:    1302 ave 1302 max 1302 min
Histogram: 1 0 0 0 0 0 0 0 0 0
FullNghs:  2606 ave 2606 max 2606 min
Histogram: 1 0 0 0 0 0 0 0 0 0

Total # of neighbors = 2606
Ave neighs/atom = 26.06
Ave special neighs/atom = 5.88
Neighbor list builds = 167
Dangerous builds = 0


print "All done"
All done
Total wall time: 0:05:21
